
Gurobi 11.0.1 (win64) logging started Wed May 15 12:30:50 2024

Set parameter LogFile to value "output/solver_log14.txt"
Gurobi Optimizer version 11.0.1 build v11.0.1rc0 (win64 - Windows 11.0 (22631.2))

CPU model: 11th Gen Intel(R) Core(TM) i7-1165G7 @ 2.80GHz, instruction set [SSE2|AVX|AVX2|AVX512]
Thread count: 4 physical cores, 8 logical processors, using up to 8 threads

Optimize a model with 2198 rows, 417 columns and 40563 nonzeros
Model fingerprint: 0x464383d9
Variable types: 248 continuous, 169 integer (169 binary)
Coefficient statistics:
  Matrix range     [4e-01, 1e+05]
  Objective range  [1e+00, 1e+02]
  Bounds range     [1e+00, 1e+00]
  RHS range        [1e-02, 1e+05]

User MIP start produced solution with objective 76034.6 (0.00s)
User MIP start produced solution with objective 76034.6 (0.01s)
Loaded user MIP start with objective 76034.6

Presolve removed 107 rows and 106 columns
Presolve time: 0.05s
Presolved: 2091 rows, 311 columns, 39990 nonzeros
Variable types: 228 continuous, 83 integer (83 binary)

Root relaxation: objective 7.608944e+04, 592 iterations, 0.04 seconds (0.08 work units)

    Nodes    |    Current Node    |     Objective Bounds      |     Work
 Expl Unexpl |  Obj  Depth IntInf | Incumbent    BestBd   Gap | It/Node Time

     0     0 76089.4369    0    3 76034.6389 76089.4369  0.07%     -    0s
H    0     0                    76089.436937 76089.4369  0.00%     -    0s
     0     0 76089.4369    0    3 76089.4369 76089.4369  0.00%     -    0s

Explored 1 nodes (592 simplex iterations) in 0.21 seconds (0.30 work units)
Thread count was 8 (of 8 available processors)

Solution count 3: 76089.4 76089.4 76034.6 

Optimal solution found (tolerance 1.00e-04)
Best objective 7.608943693666e+04, best bound 7.608943693666e+04, gap 0.0000%
